NAME : KROE99C
TYPE : PDTSP
DIMENSION : 99
EDGE_WEIGHT_TYPE : EUC_2D
NODE_COORD_SECTION
1 3477 949
2 91 1732
3 3972 329
4 198 1632
5 1806 733
6 538 1023
7 3430 1088
8 2186 766
9 1513 1646
10 2143 1611
11 53 1657
12 3404 1307
13 1034 1344
14 2823 376
15 3104 1931
16 3232 324
17 2790 1457
18 374 9
19 741 146
20 3083 1938
21 3502 1067
22 1280 237
23 3326 1846
24 217 38
25 2503 1172
26 3527 41
27 739 1850
28 3548 1999
29 48 154
30 1419 872
31 1689 1223
32 3468 1404
33 1628 253
34 382 872
35 3029 1242
36 3646 1758
37 285 1029
38 1782 93
39 1067 371
40 2849 1214
41 920 1835
42 1741 712
43 876 220
44 2753 283
45 2609 1286
46 3941 258
47 3613 523
48 1754 559
49 2916 1724
50 2445 1820
51 3825 1101
52 2779 435
53 201 693
54 2502 1274
55 765 833
56 3105 1823
57 1937 1400
58 3364 1498
59 3702 1624
60 2164 1874
61 3019 189
62 3098 1594
63 3239 1376
64 3359 1693
65 2081 1011
66 1398 1100
67 618 1953
68 1878 59
69 3803 886
70 397 1217
71 3035 152
72 2502 146
73 3230 380
74 3479 1023
75 958 1670
76 3423 1241
77 78 1066
78 96 691
79 3431 78
80 2053 1461
81 3048 1
82 571 1711
83 3393 782
84 2835 1472
85 144 1185
86 923 108
87 989 1997
88 3061 1211
89 2977 39
90 1668 658
91 678 1599
92 1086 868
93 640 110
94 3551 1673
95 106 1267
96 2243 1332
97 3796 1401
98 2643 1320
99 48 267
PICKUP_AND_DELIVERY_SECTION
1 0 0 0 0 0 0
2 0 0 0 0 0 21
3 0 0 0 0 0 16
4 0 0 0 0 0 91
5 0 0 0 0 60 0
6 0 0 0 0 99 0
7 0 0 0 0 73 0
8 0 0 0 0 0 63
9 0 0 0 0 58 0
10 0 0 0 0 0 62
11 0 0 0 0 0 77
12 0 0 0 0 53 0
13 0 0 0 0 0 43
14 0 0 0 0 0 74
15 0 0 0 0 0 88
16 0 0 0 0 3 0
17 0 0 0 0 0 70
18 0 0 0 0 34 0
19 0 0 0 0 0 59
20 0 0 0 0 25 0
21 0 0 0 0 2 0
22 0 0 0 0 0 86
23 0 0 0 0 0 40
24 0 0 0 0 61 0
25 0 0 0 0 0 20
26 0 0 0 0 0 82
27 0 0 0 0 94 0
28 0 0 0 0 0 37
29 0 0 0 0 0 32
30 0 0 0 0 0 47
31 0 0 0 0 0 78
32 0 0 0 0 29 0
33 0 0 0 0 54 0
34 0 0 0 0 0 18
35 0 0 0 0 85 0
36 0 0 0 0 0 56
37 0 0 0 0 28 0
38 0 0 0 0 0 57
39 0 0 0 0 97 0
40 0 0 0 0 23 0
41 0 0 0 0 98 0
42 0 0 0 0 0 49
43 0 0 0 0 13 0
44 0 0 0 0 80 0
45 0 0 0 0 0 65
46 0 0 0 0 0 72
47 0 0 0 0 30 0
48 0 0 0 0 76 0
49 0 0 0 0 42 0
50 0 0 0 0 0 51
51 0 0 0 0 50 0
52 0 0 0 0 0 84
53 0 0 0 0 0 12
54 0 0 0 0 0 33
55 0 0 0 0 90 0
56 0 0 0 0 36 0
57 0 0 0 0 38 0
58 0 0 0 0 0 9
59 0 0 0 0 19 0
60 0 0 0 0 0 5
61 0 0 0 0 0 24
62 0 0 0 0 10 0
63 0 0 0 0 8 0
64 0 0 0 0 71 0
65 0 0 0 0 45 0
66 0 0 0 0 0 69
67 0 0 0 0 95 0
68 0 0 0 0 81 0
69 0 0 0 0 66 0
70 0 0 0 0 17 0
71 0 0 0 0 0 64
72 0 0 0 0 46 0
73 0 0 0 0 0 7
74 0 0 0 0 14 0
75 0 0 0 0 87 0
76 0 0 0 0 0 48
77 0 0 0 0 11 0
78 0 0 0 0 31 0
79 0 0 0 0 0 93
80 0 0 0 0 0 44
81 0 0 0 0 0 68
82 0 0 0 0 26 0
83 0 0 0 0 96 0
84 0 0 0 0 52 0
85 0 0 0 0 0 35
86 0 0 0 0 22 0
87 0 0 0 0 0 75
88 0 0 0 0 15 0
89 0 0 0 0 92 0
90 0 0 0 0 0 55
91 0 0 0 0 4 0
92 0 0 0 0 0 89
93 0 0 0 0 79 0
94 0 0 0 0 0 27
95 0 0 0 0 0 67
96 0 0 0 0 0 83
97 0 0 0 0 0 39
98 0 0 0 0 0 41
99 0 0 0 0 0 6
DEPOT_SECTION
1 
-1
EOF
